TCS_Benchmarks/redos_fix/snort3_output_distinct_3270_3269_24_0.txt
[^;]+
([^;]+)([rR][eE][mM][oO][vV][eE][nN][oO][dD][eE])([^;]*)
[^;]*